Traveling Salesman Problem/TSP_generados/Aleatorio1621103251_6.tsp
NAME: Aleatorio1621103251_6.tsp
COMMENT: Randomly generated scenario
TYPE: TSP
DIMENSION: 6
EDGE_WEIGHT_TYPE: ATT
NODE_COORD_SECTION
1 32.18 36.08
2 22.23 26.8
3 5.98 25.11
4 34.63 20.22
5 3.41 25.71
6 0.57 37.73
