Traveling Salesman Problem/TSP_generados/Aleatorio1621103251_6.opt.tour
NAME: Aleatorio1621103251_6.opt.tour
COMMENT: Optimal solution for Aleatorio1621103251_6 (93.06653547772467)
TYPE: TOUR
DIMENSION: 6
TOUR_SECTION
1 4 2 3 5 6
-1
EOF
